<?xml version = "1.0" encoding="UTF-8" standalone="yes"?>
<CPLEXSolution version="1.2">
 <header
   problemName="inst_17_cut_n7"
   objectiveValue="100.57831325301203"
   solutionTypeValue="1"
   solutionTypeString="basic"
   solutionStatusValue="1"
   solutionStatusString="optimal"
   solutionMethodString="primal"
   primalFeasible="1"
   dualFeasible="1"
   simplexIterations="0"
   writeLevel="1"/>
 <quality
   epRHS="9.9999999999999995e-07"
   epOpt="9.9999999999999995e-07"
   maxPrimalInfeas="0"
   maxDualInfeas="0"
   maxPrimalResidual="4.6185277824406512e-14"
   maxDualResidual="1.0658141036401503e-14"
   maxX="4.7028112449798094"
   maxPi="1.9518072289156625"
   maxSlack="465.98393574297194"
   maxRedCost="26.108433734939744"
   kappa="851.30713348503377"/>
 <linearConstraints>
  <constraint name="c0" index="0" status="BS" slack="229.52610441767075" dual="-0"/>
  <constraint name="c1" index="1" status="BS" slack="300.89558232931739" dual="-0"/>
  <constraint name="c2" index="2" status="BS" slack="154.05220883534147" dual="-0"/>
  <constraint name="c3" index="3" status="BS" slack="410.55823293172699" dual="-0"/>
  <constraint name="c4" index="4" status="BS" slack="465.98393574297194" dual="-0"/>
  <constraint name="c5" index="5" status="BS" slack="418.34538152610452" dual="-0"/>
  <constraint name="c6" index="6" status="BS" slack="250.19678714859432" dual="-0"/>
  <constraint name="c7" index="7" status="BS" slack="0.52610441767074434" dual="-0"/>
  <constraint name="c8" index="8" status="BS" slack="431.2168674698795" dual="-0"/>
  <constraint name="c9" index="9" status="LL" slack="0" dual="-0"/>
  <constraint name="c10" index="10" status="BS" slack="349.33333333333337" dual="-0"/>
  <constraint name="c11" index="11" status="BS" slack="0.65461847389553895" dual="-0"/>
  <constraint name="cut_1" index="12" status="LL" slack="0" dual="1.9518072289156625"/>
  <constraint name="cut_2" index="13" status="BS" slack="0.15662650602411787" dual="-0"/>
  <constraint name="cut_3" index="14" status="LL" slack="0" dual="0.45783132530120485"/>
  <constraint name="cut_4" index="15" status="BS" slack="0.49397590361448707" dual="-0"/>
  <constraint name="cut_5" index="16" status="BS" slack="0.068273092369480537" dual="-0"/>
  <constraint name="cut_6" index="17" status="BS" slack="0.70682730923692105" dual="-0"/>
  <constraint name="cut_7" index="18" status="BS" slack="0.11244979919676013" dual="-0"/>
 </linearConstraints>
 <variables>
  <variable name="x0" index="0" status="BS" value="0.66265060240963647" reducedCost="0"/>
  <variable name="x1" index="1" status="LL" value="0" reducedCost="-19.265060240963852"/>
  <variable name="x2" index="2" status="LL" value="0" reducedCost="-2.32530120481929"/>
  <variable name="x3" index="3" status="LL" value="0" reducedCost="-26.108433734939744"/>
  <variable name="x4" index="4" status="LL" value="0" reducedCost="-8.7590361445783174"/>
  <variable name="x5" index="5" status="BS" value="0.35742971887550401" reducedCost="0"/>
  <variable name="s0" index="6" status="LL" value="0" reducedCost="0"/>
  <variable name="s1" index="7" status="LL" value="0" reducedCost="0"/>
  <variable name="s2" index="8" status="LL" value="0" reducedCost="0"/>
  <variable name="s3" index="9" status="LL" value="0" reducedCost="0"/>
  <variable name="s4" index="10" status="LL" value="0" reducedCost="0"/>
  <variable name="s5" index="11" status="LL" value="0" reducedCost="0"/>
  <variable name="s6" index="12" status="LL" value="0" reducedCost="0"/>
  <variable name="s7" index="13" status="LL" value="0" reducedCost="0"/>
  <variable name="s8" index="14" status="LL" value="0" reducedCost="0"/>
  <variable name="s9" index="15" status="BS" value="4.7028112449798094" reducedCost="0"/>
  <variable name="s10" index="16" status="LL" value="0" reducedCost="0"/>
  <variable name="s11" index="17" status="LL" value="0" reducedCost="0"/>
 </variables>
 <objectiveValues>
  <objective index="0" name="" value="100.57831325301203"/>
 </objectiveValues>
</CPLEXSolution>
